p cnf 624 2292
1 2 3 4 0
-1 -2 0
-1 -3 0
-1 -4 0
-2 -3 0
-2 -4 0
-3 -4 0
5 -6 -7 0
6 -5 -7 0
-5 -6 7 0
6 5 7 0
-1 -7 0
6 -8 -9 0
8 -6 -9 0
9 -6 -8 0
9 6 8 0
-2 9 0
-5 10 0
-8 10 0
-11 10 0
-12 10 0
-13 10 0
-14 10 0
-15 10 0
-16 10 0
-17 10 0
-18 10 0
-19 10 0
20 0
6 -10 -21 0
-6 10 -21 0
-6 -10 21 0
6 10 21 0
-3 21 0
5 22 0
8 22 0
11 22 0
12 22 0
13 22 0
14 22 0
15 22 0
16 22 0
17 22 0
18 22 0
19 22 0
-23 0
-6 22 -24 0
6 -22 -24 0
24 -22 -6 0
6 22 24 0
-4 -24 0
8 -25 -26 0
25 -8 -26 0
-8 -25 26 0
8 25 26 0
-1 -26 0
25 -11 -27 0
11 -25 -27 0
27 -25 -11 0
27 25 11 0
-2 27 0
-8 28 0
-11 28 0
-12 28 0
-13 28 0
-14 28 0
-15 28 0
-16 28 0
-17 28 0
-18 28 0
-19 28 0
29 0
25 -28 -30 0
-25 28 -30 0
-25 -28 30 0
25 28 30 0
-3 30 0
8 31 0
11 31 0
12 31 0
13 31 0
14 31 0
15 31 0
16 31 0
17 31 0
18 31 0
19 31 0
-32 0
-25 31 -33 0
25 -31 -33 0
33 -31 -25 0
25 31 33 0
-4 -33 0
11 -34 -35 0
34 -11 -35 0
-11 -34 35 0
11 34 35 0
-1 -35 0
34 -12 -36 0
12 -34 -36 0
36 -34 -12 0
36 34 12 0
-2 36 0
-11 37 0
-12 37 0
-13 37 0
-14 37 0
-15 37 0
-16 37 0
-17 37 0
-18 37 0
-19 37 0
38 0
34 -37 -39 0
-34 37 -39 0
-34 -37 39 0
34 37 39 0
-3 39 0
11 40 0
12 40 0
13 40 0
14 40 0
15 40 0
16 40 0
17 40 0
18 40 0
19 40 0
-41 0
-34 40 -42 0
34 -40 -42 0
42 -40 -34 0
34 40 42 0
-4 -42 0
12 -43 -44 0
43 -12 -44 0
-12 -43 44 0
12 43 44 0
-1 -44 0
43 -13 -45 0
13 -43 -45 0
45 -43 -13 0
45 43 13 0
-2 45 0
-12 46 0
-13 46 0
-14 46 0
-15 46 0
-16 46 0
-17 46 0
-18 46 0
-19 46 0
47 0
43 -46 -48 0
-43 46 -48 0
-43 -46 48 0
43 46 48 0
-3 48 0
12 49 0
13 49 0
14 49 0
15 49 0
16 49 0
17 49 0
18 49 0
19 49 0
-50 0
-43 49 -51 0
43 -49 -51 0
51 -49 -43 0
43 49 51 0
-4 -51 0
13 -52 -53 0
52 -13 -53 0
-13 -52 53 0
13 52 53 0
-1 -53 0
52 -14 -54 0
14 -52 -54 0
54 -52 -14 0
54 52 14 0
-2 54 0
-13 55 0
-14 55 0
-15 55 0
-16 55 0
-17 55 0
-18 55 0
-19 55 0
56 0
52 -55 -57 0
-52 55 -57 0
-52 -55 57 0
52 55 57 0
-3 57 0
13 58 0
14 58 0
15 58 0
16 58 0
17 58 0
18 58 0
19 58 0
-59 0
-52 58 -60 0
52 -58 -60 0
60 -58 -52 0
52 58 60 0
-4 -60 0
14 -61 -62 0
61 -14 -62 0
-14 -61 62 0
14 61 62 0
-1 -62 0
61 -15 -63 0
15 -61 -63 0
63 -61 -15 0
63 61 15 0
-2 63 0
-14 64 0
-15 64 0
-16 64 0
-17 64 0
-18 64 0
-19 64 0
14 15 16 17 18 19 -64 0
61 -64 -65 0
-61 64 -65 0
-61 -64 65 0
61 64 65 0
-3 65 0
14 66 0
15 66 0
16 66 0
17 66 0
18 66 0
19 66 0
-67 0
-61 66 -68 0
61 -66 -68 0
68 -66 -61 0
61 66 68 0
-4 -68 0
15 -69 -70 0
69 -15 -70 0
-15 -69 70 0
15 69 70 0
-1 -70 0
69 -16 -71 0
16 -69 -71 0
71 -69 -16 0
71 69 16 0
-2 71 0
69 -64 -72 0
64 -69 -72 0
-64 -69 72 0
69 64 72 0
-3 72 0
66 -69 -73 0
69 -66 -73 0
73 -66 -69 0
69 66 73 0
-4 -73 0
16 -74 -75 0
74 -16 -75 0
-16 -74 75 0
16 74 75 0
-1 -75 0
74 -17 -76 0
17 -74 -76 0
76 -74 -17 0
76 74 17 0
-2 76 0
74 -64 -77 0
64 -74 -77 0
-64 -74 77 0
74 64 77 0
-3 77 0
66 -74 -78 0
74 -66 -78 0
78 -66 -74 0
74 66 78 0
-4 -78 0
17 -79 -80 0
79 -17 -80 0
-17 -79 80 0
17 79 80 0
-1 -80 0
79 -18 -81 0
18 -79 -81 0
81 -79 -18 0
81 79 18 0
-2 81 0
79 -64 -82 0
64 -79 -82 0
-64 -79 82 0
79 64 82 0
-3 82 0
66 -79 -83 0
79 -66 -83 0
83 -66 -79 0
79 66 83 0
-4 -83 0
18 -84 -85 0
84 -18 -85 0
-18 -84 85 0
18 84 85 0
-1 -85 0
84 -19 -86 0
19 -84 -86 0
86 -84 -19 0
86 84 19 0
-2 86 0
84 -64 -87 0
64 -84 -87 0
-64 -84 87 0
84 64 87 0
-3 87 0
66 -84 -88 0
84 -66 -88 0
88 -66 -84 0
84 66 88 0
-4 -88 0
19 -89 -90 0
89 -19 -90 0
-19 -89 90 0
19 89 90 0
-1 -90 0
-14 89 -91 0
14 -89 -91 0
91 -89 -14 0
91 89 14 0
-2 91 0
-19 92 0
-61 92 0
19 61 -92 0
89 -92 -93 0
-89 92 -93 0
-89 -92 93 0
89 92 93 0
-3 93 0
19 94 0
61 94 0
-19 -61 -94 0
-89 94 -95 0
89 -94 -95 0
95 -94 -89 0
89 94 95 0
-4 -95 0
96 -97 -98 0
97 -96 -98 0
-96 -97 98 0
97 96 98 0
-1 -98 0
97 -99 -100 0
99 -97 -100 0
100 -97 -99 0
100 97 99 0
-2 100 0
-96 101 0
-99 101 0
-102 101 0
-103 101 0
-104 101 0
-105 101 0
-106 101 0
-107 101 0
108 0
97 -101 -109 0
-97 101 -109 0
-97 -101 109 0
97 101 109 0
-3 109 0
96 110 0
99 110 0
102 110 0
103 110 0
104 110 0
105 110 0
106 110 0
107 110 0
-111 0
-97 110 -112 0
97 -110 -112 0
112 -110 -97 0
97 110 112 0
-4 -112 0
99 -113 -114 0
113 -99 -114 0
-99 -113 114 0
99 113 114 0
-1 -114 0
113 -102 -115 0
102 -113 -115 0
115 -113 -102 0
115 113 102 0
-2 115 0
-99 116 0
-102 116 0
-103 116 0
-104 116 0
-105 116 0
-106 116 0
-107 116 0
117 0
113 -116 -118 0
-113 116 -118 0
-113 -116 118 0
113 116 118 0
-3 118 0
99 119 0
102 119 0
103 119 0
104 119 0
105 119 0
106 119 0
107 119 0
-120 0
-113 119 -121 0
113 -119 -121 0
121 -119 -113 0
113 119 121 0
-4 -121 0
102 -122 -123 0
122 -102 -123 0
-102 -122 123 0
102 122 123 0
-1 -123 0
122 -103 -124 0
103 -122 -124 0
124 -122 -103 0
124 122 103 0
-2 124 0
-102 125 0
-103 125 0
-104 125 0
-105 125 0
-106 125 0
-107 125 0
126 0
122 -125 -127 0
-122 125 -127 0
-122 -125 127 0
122 125 127 0
-3 127 0
102 128 0
103 128 0
104 128 0
105 128 0
106 128 0
107 128 0
-129 0
-122 128 -130 0
122 -128 -130 0
130 -128 -122 0
122 128 130 0
-4 -130 0
103 -131 -132 0
131 -103 -132 0
-103 -131 132 0
103 131 132 0
-1 -132 0
131 -104 -133 0
104 -131 -133 0
133 -131 -104 0
133 131 104 0
-2 133 0
-103 134 0
-104 134 0
-105 134 0
-106 134 0
-107 134 0
103 104 105 106 107 -134 0
131 -134 -135 0
-131 134 -135 0
-131 -134 135 0
131 134 135 0
-3 135 0
103 136 0
104 136 0
105 136 0
106 136 0
107 136 0
-137 0
-131 136 -138 0
131 -136 -138 0
138 -136 -131 0
131 136 138 0
-4 -138 0
104 -139 -140 0
139 -104 -140 0
-104 -139 140 0
104 139 140 0
-1 -140 0
139 -105 -141 0
105 -139 -141 0
141 -139 -105 0
141 139 105 0
-2 141 0
139 -134 -142 0
134 -139 -142 0
-134 -139 142 0
139 134 142 0
-3 142 0
136 -139 -143 0
139 -136 -143 0
143 -136 -139 0
139 136 143 0
-4 -143 0
105 -144 -145 0
144 -105 -145 0
-105 -144 145 0
105 144 145 0
-1 -145 0
144 -106 -146 0
106 -144 -146 0
146 -144 -106 0
146 144 106 0
-2 146 0
144 -134 -147 0
134 -144 -147 0
-134 -144 147 0
144 134 147 0
-3 147 0
136 -144 -148 0
144 -136 -148 0
148 -136 -144 0
144 136 148 0
-4 -148 0
106 -149 -150 0
149 -106 -150 0
-106 -149 150 0
106 149 150 0
-1 -150 0
149 -107 -151 0
107 -149 -151 0
151 -149 -107 0
151 149 107 0
-2 151 0
149 -134 -152 0
134 -149 -152 0
-134 -149 152 0
149 134 152 0
-3 152 0
136 -149 -153 0
149 -136 -153 0
153 -136 -149 0
149 136 153 0
-4 -153 0
107 -154 -155 0
154 -107 -155 0
-107 -154 155 0
107 154 155 0
-1 -155 0
-103 154 -156 0
103 -154 -156 0
156 -154 -103 0
156 154 103 0
-2 156 0
-107 157 0
-131 157 0
107 131 -157 0
154 -157 -158 0
-154 157 -158 0
-154 -157 158 0
154 157 158 0
-3 158 0
107 159 0
131 159 0
-107 -131 -159 0
-154 159 -160 0
154 -159 -160 0
160 -159 -154 0
154 159 160 0
-4 -160 0
161 -162 -163 0
162 -161 -163 0
-161 -162 163 0
162 161 163 0
-1 -163 0
162 -164 -165 0
164 -162 -165 0
165 -162 -164 0
165 162 164 0
-2 165 0
-161 166 0
-164 166 0
-167 166 0
-168 166 0
-169 166 0
-170 166 0
-171 166 0
-172 166 0
-173 166 0
-174 166 0
-175 166 0
176 0
162 -166 -177 0
-162 166 -177 0
-162 -166 177 0
162 166 177 0
-3 177 0
161 178 0
164 178 0
167 178 0
168 178 0
169 178 0
170 178 0
171 178 0
172 178 0
173 178 0
174 178 0
175 178 0
-179 0
-162 178 -180 0
162 -178 -180 0
180 -178 -162 0
162 178 180 0
-4 -180 0
164 -181 -182 0
181 -164 -182 0
-164 -181 182 0
164 181 182 0
-1 -182 0
181 -167 -183 0
167 -181 -183 0
183 -181 -167 0
183 181 167 0
-2 183 0
-164 184 0
-167 184 0
-168 184 0
-169 184 0
-170 184 0
-171 184 0
-172 184 0
-173 184 0
-174 184 0
-175 184 0
185 0
181 -184 -186 0
-181 184 -186 0
-181 -184 186 0
181 184 186 0
-3 186 0
164 187 0
167 187 0
168 187 0
169 187 0
170 187 0
171 187 0
172 187 0
173 187 0
174 187 0
175 187 0
-188 0
-181 187 -189 0
181 -187 -189 0
189 -187 -181 0
181 187 189 0
-4 -189 0
167 -190 -191 0
190 -167 -191 0
-167 -190 191 0
167 190 191 0
-1 -191 0
190 -168 -192 0
168 -190 -192 0
192 -190 -168 0
192 190 168 0
-2 192 0
-167 193 0
-168 193 0
-169 193 0
-170 193 0
-171 193 0
-172 193 0
-173 193 0
-174 193 0
-175 193 0
194 0
190 -193 -195 0
-190 193 -195 0
-190 -193 195 0
190 193 195 0
-3 195 0
167 196 0
168 196 0
169 196 0
170 196 0
171 196 0
172 196 0
173 196 0
174 196 0
175 196 0
-197 0
-190 196 -198 0
190 -196 -198 0
198 -196 -190 0
190 196 198 0
-4 -198 0
168 -199 -200 0
199 -168 -200 0
-168 -199 200 0
168 199 200 0
-1 -200 0
199 -169 -201 0
169 -199 -201 0
201 -199 -169 0
201 199 169 0
-2 201 0
-168 202 0
-169 202 0
-170 202 0
-171 202 0
-172 202 0
-173 202 0
-174 202 0
-175 202 0
203 0
199 -202 -204 0
-199 202 -204 0
-199 -202 204 0
199 202 204 0
-3 204 0
168 205 0
169 205 0
170 205 0
171 205 0
172 205 0
173 205 0
174 205 0
175 205 0
-206 0
-199 205 -207 0
199 -205 -207 0
207 -205 -199 0
199 205 207 0
-4 -207 0
169 -208 -209 0
208 -169 -209 0
-169 -208 209 0
169 208 209 0
-1 -209 0
208 -170 -210 0
170 -208 -210 0
210 -208 -170 0
210 208 170 0
-2 210 0
-169 211 0
-170 211 0
-171 211 0
-172 211 0
-173 211 0
-174 211 0
-175 211 0
212 0
208 -211 -213 0
-208 211 -213 0
-208 -211 213 0
208 211 213 0
-3 213 0
169 214 0
170 214 0
171 214 0
172 214 0
173 214 0
174 214 0
175 214 0
-215 0
-208 214 -216 0
208 -214 -216 0
216 -214 -208 0
208 214 216 0
-4 -216 0
170 -217 -218 0
217 -170 -218 0
-170 -217 218 0
170 217 218 0
-1 -218 0
217 -171 -219 0
171 -217 -219 0
219 -217 -171 0
219 217 171 0
-2 219 0
-170 220 0
-171 220 0
-172 220 0
-173 220 0
-174 220 0
-175 220 0
221 0
217 -220 -222 0
-217 220 -222 0
-217 -220 222 0
217 220 222 0
-3 222 0
170 223 0
171 223 0
172 223 0
173 223 0
174 223 0
175 223 0
-224 0
-217 223 -225 0
217 -223 -225 0
225 -223 -217 0
217 223 225 0
-4 -225 0
171 -226 -227 0
226 -171 -227 0
-171 -226 227 0
171 226 227 0
-1 -227 0
226 -172 -228 0
172 -226 -228 0
228 -226 -172 0
228 226 172 0
-2 228 0
226 -220 -229 0
220 -226 -229 0
-220 -226 229 0
226 220 229 0
-3 229 0
223 -226 -230 0
226 -223 -230 0
230 -223 -226 0
226 223 230 0
-4 -230 0
172 -231 -232 0
231 -172 -232 0
-172 -231 232 0
172 231 232 0
-1 -232 0
231 -173 -233 0
173 -231 -233 0
233 -231 -173 0
233 231 173 0
-2 233 0
231 -220 -234 0
220 -231 -234 0
-220 -231 234 0
231 220 234 0
-3 234 0
223 -231 -235 0
231 -223 -235 0
235 -223 -231 0
231 223 235 0
-4 -235 0
173 -236 -237 0
236 -173 -237 0
-173 -236 237 0
173 236 237 0
-1 -237 0
236 -174 -238 0
174 -236 -238 0
238 -236 -174 0
238 236 174 0
-2 238 0
236 -220 -239 0
220 -236 -239 0
-220 -236 239 0
236 220 239 0
-3 239 0
223 -236 -240 0
236 -223 -240 0
240 -223 -236 0
236 223 240 0
-4 -240 0
174 -241 -242 0
241 -174 -242 0
-174 -241 242 0
174 241 242 0
-1 -242 0
241 -175 -243 0
175 -241 -243 0
243 -241 -175 0
243 241 175 0
-2 243 0
241 -220 -244 0
220 -241 -244 0
-220 -241 244 0
241 220 244 0
-3 244 0
223 -241 -245 0
241 -223 -245 0
245 -223 -241 0
241 223 245 0
-4 -245 0
175 -246 -247 0
246 -175 -247 0
-175 -246 247 0
175 246 247 0
-1 -247 0
-170 246 -248 0
170 -246 -248 0
248 -246 -170 0
248 246 170 0
-2 248 0
-175 249 0
-217 249 0
175 217 -249 0
246 -249 -250 0
-246 249 -250 0
-246 -249 250 0
246 249 250 0
-3 250 0
175 251 0
217 251 0
-175 -217 -251 0
-246 251 -252 0
246 -251 -252 0
252 -251 -246 0
246 251 252 0
-4 -252 0
253 -254 -255 0
254 -253 -255 0
-253 -254 255 0
254 253 255 0
-1 -255 0
254 -256 -257 0
256 -254 -257 0
257 -254 -256 0
257 254 256 0
-2 257 0
-169 258 0
-170 258 0
-171 258 0
-172 258 0
-173 258 0
-174 258 0
-175 258 0
-253 258 0
-256 258 0
-259 258 0
-260 258 0
261 0
254 -258 -262 0
-254 258 -262 0
-254 -258 262 0
254 258 262 0
-3 262 0
169 263 0
170 263 0
171 263 0
172 263 0
173 263 0
174 263 0
175 263 0
253 263 0
256 263 0
259 263 0
260 263 0
-264 0
-254 263 -265 0
254 -263 -265 0
265 -263 -254 0
254 263 265 0
-4 -265 0
256 -266 -267 0
266 -256 -267 0
-256 -266 267 0
256 266 267 0
-1 -267 0
266 -259 -268 0
259 -266 -268 0
268 -266 -259 0
268 266 259 0
-2 268 0
-169 269 0
-170 269 0
-171 269 0
-172 269 0
-173 269 0
-174 269 0
-175 269 0
-256 269 0
-259 269 0
-260 269 0
270 0
266 -269 -271 0
-266 269 -271 0
-266 -269 271 0
266 269 271 0
-3 271 0
169 272 0
170 272 0
171 272 0
172 272 0
173 272 0
174 272 0
175 272 0
256 272 0
259 272 0
260 272 0
-273 0
-266 272 -274 0
266 -272 -274 0
274 -272 -266 0
266 272 274 0
-4 -274 0
259 -275 -276 0
275 -259 -276 0
-259 -275 276 0
259 275 276 0
-1 -276 0
275 -260 -277 0
260 -275 -277 0
277 -275 -260 0
277 275 260 0
-2 277 0
-169 278 0
-170 278 0
-171 278 0
-172 278 0
-173 278 0
-174 278 0
-175 278 0
-259 278 0
-260 278 0
279 0
275 -278 -280 0
-275 278 -280 0
-275 -278 280 0
275 278 280 0
-3 280 0
169 281 0
170 281 0
171 281 0
172 281 0
173 281 0
174 281 0
175 281 0
259 281 0
260 281 0
-282 0
-275 281 -283 0
275 -281 -283 0
283 -281 -275 0
275 281 283 0
-4 -283 0
260 -284 -285 0
284 -260 -285 0
-260 -284 285 0
260 284 285 0
-1 -285 0
-169 284 -286 0
169 -284 -286 0
286 -284 -169 0
286 284 169 0
-2 286 0
-169 287 0
-170 287 0
-171 287 0
-172 287 0
-173 287 0
-174 287 0
-175 287 0
-260 287 0
288 0
284 -287 -289 0
-284 287 -289 0
-284 -287 289 0
284 287 289 0
-3 289 0
169 290 0
170 290 0
171 290 0
172 290 0
173 290 0
174 290 0
175 290 0
260 290 0
-291 0
-284 290 -292 0
284 -290 -292 0
292 -290 -284 0
284 290 292 0
-4 -292 0
293 -294 -295 0
294 -293 -295 0
-293 -294 295 0
294 293 295 0
-1 -295 0
294 -296 -297 0
296 -294 -297 0
297 -294 -296 0
297 294 296 0
-2 297 0
-103 298 0
-104 298 0
-105 298 0
-106 298 0
-107 298 0
-293 298 0
-296 298 0
-299 298 0
-300 298 0
301 0
294 -298 -302 0
-294 298 -302 0
-294 -298 302 0
294 298 302 0
-3 302 0
103 303 0
104 303 0
105 303 0
106 303 0
107 303 0
293 303 0
296 303 0
299 303 0
300 303 0
-304 0
-294 303 -305 0
294 -303 -305 0
305 -303 -294 0
294 303 305 0
-4 -305 0
296 -306 -307 0
306 -296 -307 0
-296 -306 307 0
296 306 307 0
-1 -307 0
306 -299 -308 0
299 -306 -308 0
308 -306 -299 0
308 306 299 0
-2 308 0
-103 309 0
-104 309 0
-105 309 0
-106 309 0
-107 309 0
-296 309 0
-299 309 0
-300 309 0
310 0
306 -309 -311 0
-306 309 -311 0
-306 -309 311 0
306 309 311 0
-3 311 0
103 312 0
104 312 0
105 312 0
106 312 0
107 312 0
296 312 0
299 312 0
300 312 0
-313 0
-306 312 -314 0
306 -312 -314 0
314 -312 -306 0
306 312 314 0
-4 -314 0
299 -315 -316 0
315 -299 -316 0
-299 -315 316 0
299 315 316 0
-1 -316 0
315 -300 -317 0
300 -315 -317 0
317 -315 -300 0
317 315 300 0
-2 317 0
-103 318 0
-104 318 0
-105 318 0
-106 318 0
-107 318 0
-299 318 0
-300 318 0
319 0
315 -318 -320 0
-315 318 -320 0
-315 -318 320 0
315 318 320 0
-3 320 0
103 321 0
104 321 0
105 321 0
106 321 0
107 321 0
299 321 0
300 321 0
-322 0
-315 321 -323 0
315 -321 -323 0
323 -321 -315 0
315 321 323 0
-4 -323 0
300 -324 -325 0
324 -300 -325 0
-300 -324 325 0
300 324 325 0
-1 -325 0
-107 324 -326 0
107 -324 -326 0
326 -324 -107 0
326 324 107 0
-2 326 0
-103 327 0
-104 327 0
-105 327 0
-106 327 0
-107 327 0
-300 327 0
328 0
324 -327 -329 0
-324 327 -329 0
-324 -327 329 0
324 327 329 0
-3 329 0
103 330 0
104 330 0
105 330 0
106 330 0
107 330 0
300 330 0
-331 0
-324 330 -332 0
324 -330 -332 0
332 -330 -324 0
324 330 332 0
-4 -332 0
333 -334 -335 0
334 -333 -335 0
-333 -334 335 0
334 333 335 0
-1 -335 0
334 -336 -337 0
336 -334 -337 0
337 -334 -336 0
337 334 336 0
-2 337 0
-333 338 0
-336 338 0
-339 338 0
-340 338 0
333 336 339 340 -338 0
334 -338 -341 0
-334 338 -341 0
-334 -338 341 0
334 338 341 0
-3 341 0
333 342 0
336 342 0
339 342 0
340 342 0
-343 0
-334 342 -344 0
334 -342 -344 0
344 -342 -334 0
334 342 344 0
-4 -344 0
336 -345 -346 0
345 -336 -346 0
-336 -345 346 0
336 345 346 0
-1 -346 0
345 -339 -347 0
339 -345 -347 0
347 -345 -339 0
347 345 339 0
-2 347 0
-336 348 0
-339 348 0
-340 348 0
336 339 340 -348 0
345 -348 -349 0
-345 348 -349 0
-345 -348 349 0
345 348 349 0
-3 349 0
336 350 0
339 350 0
340 350 0
-336 -339 -340 -350 0
-345 350 -351 0
345 -350 -351 0
351 -350 -345 0
345 350 351 0
-4 -351 0
339 -352 -353 0
352 -339 -353 0
-339 -352 353 0
339 352 353 0
-1 -353 0
352 -340 -354 0
340 -352 -354 0
354 -352 -340 0
354 352 340 0
-2 354 0
-339 355 0
-340 355 0
339 340 -355 0
352 -355 -356 0
-352 355 -356 0
-352 -355 356 0
352 355 356 0
-3 356 0
339 357 0
340 357 0
-339 -340 -357 0
-352 357 -358 0
352 -357 -358 0
358 -357 -352 0
352 357 358 0
-4 -358 0
340 -359 -360 0
359 -340 -360 0
-340 -359 360 0
340 359 360 0
-1 -360 0
359 -340 -361 0
340 -359 -361 0
361 -359 -340 0
361 359 340 0
-2 361 0
-340 362 0
-359 362 0
340 359 -362 0
359 -362 -363 0
-359 362 -363 0
-359 -362 363 0
359 362 363 0
-3 363 0
340 364 0
359 364 0
-340 -359 -364 0
-359 364 -365 0
359 -364 -365 0
365 -364 -359 0
359 364 365 0
-4 -365 0
366 -367 -368 0
367 -366 -368 0
-366 -367 368 0
367 366 368 0
-1 -368 0
367 -369 -370 0
369 -367 -370 0
370 -367 -369 0
370 367 369 0
-2 370 0
-103 371 0
-104 371 0
-105 371 0
-106 371 0
-107 371 0
-366 371 0
-369 371 0
-372 371 0
-373 371 0
374 0
367 -371 -375 0
-367 371 -375 0
-367 -371 375 0
367 371 375 0
-3 375 0
103 376 0
104 376 0
105 376 0
106 376 0
107 376 0
366 376 0
369 376 0
372 376 0
373 376 0
-377 0
-367 376 -378 0
367 -376 -378 0
378 -376 -367 0
367 376 378 0
-4 -378 0
369 -379 -380 0
379 -369 -380 0
-369 -379 380 0
369 379 380 0
-1 -380 0
379 -372 -381 0
372 -379 -381 0
381 -379 -372 0
381 379 372 0
-2 381 0
-103 382 0
-104 382 0
-105 382 0
-106 382 0
-107 382 0
-369 382 0
-372 382 0
-373 382 0
383 0
379 -382 -384 0
-379 382 -384 0
-379 -382 384 0
379 382 384 0
-3 384 0
103 385 0
104 385 0
105 385 0
106 385 0
107 385 0
369 385 0
372 385 0
373 385 0
-386 0
-379 385 -387 0
379 -385 -387 0
387 -385 -379 0
379 385 387 0
-4 -387 0
372 -388 -389 0
388 -372 -389 0
-372 -388 389 0
372 388 389 0
-1 -389 0
388 -373 -390 0
373 -388 -390 0
390 -388 -373 0
390 388 373 0
-2 390 0
-103 391 0
-104 391 0
-105 391 0
-106 391 0
-107 391 0
-372 391 0
-373 391 0
392 0
388 -391 -393 0
-388 391 -393 0
-388 -391 393 0
388 391 393 0
-3 393 0
103 394 0
104 394 0
105 394 0
106 394 0
107 394 0
372 394 0
373 394 0
-395 0
-388 394 -396 0
388 -394 -396 0
396 -394 -388 0
388 394 396 0
-4 -396 0
373 -397 -398 0
397 -373 -398 0
-373 -397 398 0
373 397 398 0
-1 -398 0
-106 397 -399 0
106 -397 -399 0
399 -397 -106 0
399 397 106 0
-2 399 0
-103 400 0
-104 400 0
-105 400 0
-106 400 0
-107 400 0
-373 400 0
401 0
397 -400 -402 0
-397 400 -402 0
-397 -400 402 0
397 400 402 0
-3 402 0
103 403 0
104 403 0
105 403 0
106 403 0
107 403 0
373 403 0
-404 0
-397 403 -405 0
397 -403 -405 0
405 -403 -397 0
397 403 405 0
-4 -405 0
406 -407 -408 0
407 -406 -408 0
-406 -407 408 0
407 406 408 0
-1 -408 0
407 -409 -410 0
409 -407 -410 0
410 -407 -409 0
410 407 409 0
-2 410 0
-406 411 0
-409 411 0
-412 411 0
-413 411 0
-414 411 0
-415 411 0
-416 411 0
-417 411 0
-418 411 0
-419 411 0
420 0
407 -411 -421 0
-407 411 -421 0
-407 -411 421 0
407 411 421 0
-3 421 0
406 422 0
409 422 0
412 422 0
413 422 0
414 422 0
415 422 0
416 422 0
417 422 0
418 422 0
419 422 0
-423 0
-407 422 -424 0
407 -422 -424 0
424 -422 -407 0
407 422 424 0
-4 -424 0
409 -425 -426 0
425 -409 -426 0
-409 -425 426 0
409 425 426 0
-1 -426 0
425 -412 -427 0
412 -425 -427 0
427 -425 -412 0
427 425 412 0
-2 427 0
-409 428 0
-412 428 0
-413 428 0
-414 428 0
-415 428 0
-416 428 0
-417 428 0
-418 428 0
-419 428 0
429 0
425 -428 -430 0
-425 428 -430 0
-425 -428 430 0
425 428 430 0
-3 430 0
409 431 0
412 431 0
413 431 0
414 431 0
415 431 0
416 431 0
417 431 0
418 431 0
419 431 0
-432 0
-425 431 -433 0
425 -431 -433 0
433 -431 -425 0
425 431 433 0
-4 -433 0
412 -434 -435 0
434 -412 -435 0
-412 -434 435 0
412 434 435 0
-1 -435 0
434 -413 -436 0
413 -434 -436 0
436 -434 -413 0
436 434 413 0
-2 436 0
-412 437 0
-413 437 0
-414 437 0
-415 437 0
-416 437 0
-417 437 0
-418 437 0
-419 437 0
438 0
434 -437 -439 0
-434 437 -439 0
-434 -437 439 0
434 437 439 0
-3 439 0
412 440 0
413 440 0
414 440 0
415 440 0
416 440 0
417 440 0
418 440 0
419 440 0
-441 0
-434 440 -442 0
434 -440 -442 0
442 -440 -434 0
434 440 442 0
-4 -442 0
413 -443 -444 0
443 -413 -444 0
-413 -443 444 0
413 443 444 0
-1 -444 0
443 -414 -445 0
414 -443 -445 0
445 -443 -414 0
445 443 414 0
-2 445 0
-413 446 0
-414 446 0
-415 446 0
-416 446 0
-417 446 0
-418 446 0
-419 446 0
447 0
443 -446 -448 0
-443 446 -448 0
-443 -446 448 0
443 446 448 0
-3 448 0
413 449 0
414 449 0
415 449 0
416 449 0
417 449 0
418 449 0
419 449 0
-450 0
-443 449 -451 0
443 -449 -451 0
451 -449 -443 0
443 449 451 0
-4 -451 0
414 -452 -453 0
452 -414 -453 0
-414 -452 453 0
414 452 453 0
-1 -453 0
452 -415 -454 0
415 -452 -454 0
454 -452 -415 0
454 452 415 0
-2 454 0
-414 455 0
-415 455 0
-416 455 0
-417 455 0
-418 455 0
-419 455 0
456 0
452 -455 -457 0
-452 455 -457 0
-452 -455 457 0
452 455 457 0
-3 457 0
414 458 0
415 458 0
416 458 0
417 458 0
418 458 0
419 458 0
-459 0
-452 458 -460 0
452 -458 -460 0
460 -458 -452 0
452 458 460 0
-4 -460 0
415 -461 -462 0
461 -415 -462 0
-415 -461 462 0
415 461 462 0
-1 -462 0
461 -416 -463 0
416 -461 -463 0
463 -461 -416 0
463 461 416 0
-2 463 0
-415 464 0
-416 464 0
-417 464 0
-418 464 0
-419 464 0
415 416 417 418 419 -464 0
461 -464 -465 0
-461 464 -465 0
-461 -464 465 0
461 464 465 0
-3 465 0
415 466 0
416 466 0
417 466 0
418 466 0
419 466 0
-467 0
-461 466 -468 0
461 -466 -468 0
468 -466 -461 0
461 466 468 0
-4 -468 0
416 -469 -470 0
469 -416 -470 0
-416 -469 470 0
416 469 470 0
-1 -470 0
469 -417 -471 0
417 -469 -471 0
471 -469 -417 0
471 469 417 0
-2 471 0
-416 472 0
-417 472 0
-418 472 0
-419 472 0
416 417 418 419 -472 0
469 -472 -473 0
-469 472 -473 0
-469 -472 473 0
469 472 473 0
-3 473 0
416 474 0
417 474 0
418 474 0
419 474 0
-475 0
-469 474 -476 0
469 -474 -476 0
476 -474 -469 0
469 474 476 0
-4 -476 0
417 -477 -478 0
477 -417 -478 0
-417 -477 478 0
417 477 478 0
-1 -478 0
477 -418 -479 0
418 -477 -479 0
479 -477 -418 0
479 477 418 0
-2 479 0
477 -472 -480 0
472 -477 -480 0
-472 -477 480 0
477 472 480 0
-3 480 0
474 -477 -481 0
477 -474 -481 0
481 -474 -477 0
477 474 481 0
-4 -481 0
418 -482 -483 0
482 -418 -483 0
-418 -482 483 0
418 482 483 0
-1 -483 0
482 -419 -484 0
419 -482 -484 0
484 -482 -419 0
484 482 419 0
-2 484 0
482 -472 -485 0
472 -482 -485 0
-472 -482 485 0
482 472 485 0
-3 485 0
474 -482 -486 0
482 -474 -486 0
486 -474 -482 0
482 474 486 0
-4 -486 0
419 -487 -488 0
487 -419 -488 0
-419 -487 488 0
419 487 488 0
-1 -488 0
-416 487 -489 0
416 -487 -489 0
489 -487 -416 0
489 487 416 0
-2 489 0
-419 490 0
-469 490 0
419 469 -490 0
487 -490 -491 0
-487 490 -491 0
-487 -490 491 0
487 490 491 0
-3 491 0
419 492 0
469 492 0
-419 -469 -492 0
-487 492 -493 0
487 -492 -493 0
493 -492 -487 0
487 492 493 0
-4 -493 0
494 -495 -496 0
495 -494 -496 0
-494 -495 496 0
495 494 496 0
-1 -496 0
495 -497 -498 0
497 -495 -498 0
498 -495 -497 0
498 495 497 0
-2 498 0
-494 499 0
-497 499 0
-500 499 0
-501 499 0
-502 499 0
-503 499 0
-504 499 0
-505 499 0
-506 499 0
-507 499 0
-508 499 0
509 0
495 -499 -510 0
-495 499 -510 0
-495 -499 510 0
495 499 510 0
-3 510 0
494 511 0
497 511 0
500 511 0
501 511 0
502 511 0
503 511 0
504 511 0
505 511 0
506 511 0
507 511 0
508 511 0
-512 0
-495 511 -513 0
495 -511 -513 0
513 -511 -495 0
495 511 513 0
-4 -513 0
497 -514 -515 0
514 -497 -515 0
-497 -514 515 0
497 514 515 0
-1 -515 0
514 -500 -516 0
500 -514 -516 0
516 -514 -500 0
516 514 500 0
-2 516 0
-497 517 0
-500 517 0
-501 517 0
-502 517 0
-503 517 0
-504 517 0
-505 517 0
-506 517 0
-507 517 0
-508 517 0
518 0
514 -517 -519 0
-514 517 -519 0
-514 -517 519 0
514 517 519 0
-3 519 0
497 520 0
500 520 0
501 520 0
502 520 0
503 520 0
504 520 0
505 520 0
506 520 0
507 520 0
508 520 0
-521 0
-514 520 -522 0
514 -520 -522 0
522 -520 -514 0
514 520 522 0
-4 -522 0
500 -523 -524 0
523 -500 -524 0
-500 -523 524 0
500 523 524 0
-1 -524 0
523 -501 -525 0
501 -523 -525 0
525 -523 -501 0
525 523 501 0
-2 525 0
-500 526 0
-501 526 0
-502 526 0
-503 526 0
-504 526 0
-505 526 0
-506 526 0
-507 526 0
-508 526 0
527 0
523 -526 -528 0
-523 526 -528 0
-523 -526 528 0
523 526 528 0
-3 528 0
500 529 0
501 529 0
502 529 0
503 529 0
504 529 0
505 529 0
506 529 0
507 529 0
508 529 0
-530 0
-523 529 -531 0
523 -529 -531 0
531 -529 -523 0
523 529 531 0
-4 -531 0
501 -532 -533 0
532 -501 -533 0
-501 -532 533 0
501 532 533 0
-1 -533 0
532 -502 -534 0
502 -532 -534 0
534 -532 -502 0
534 532 502 0
-2 534 0
-501 535 0
-502 535 0
-503 535 0
-504 535 0
-505 535 0
-506 535 0
-507 535 0
-508 535 0
536 0
532 -535 -537 0
-532 535 -537 0
-532 -535 537 0
532 535 537 0
-3 537 0
501 538 0
502 538 0
503 538 0
504 538 0
505 538 0
506 538 0
507 538 0
508 538 0
-539 0
-532 538 -540 0
532 -538 -540 0
540 -538 -532 0
532 538 540 0
-4 -540 0
502 -541 -542 0
541 -502 -542 0
-502 -541 542 0
502 541 542 0
-1 -542 0
541 -503 -543 0
503 -541 -543 0
543 -541 -503 0
543 541 503 0
-2 543 0
-502 544 0
-503 544 0
-504 544 0
-505 544 0
-506 544 0
-507 544 0
-508 544 0
545 0
541 -544 -546 0
-541 544 -546 0
-541 -544 546 0
541 544 546 0
-3 546 0
502 547 0
503 547 0
504 547 0
505 547 0
506 547 0
507 547 0
508 547 0
-548 0
-541 547 -549 0
541 -547 -549 0
549 -547 -541 0
541 547 549 0
-4 -549 0
503 -550 -551 0
550 -503 -551 0
-503 -550 551 0
503 550 551 0
-1 -551 0
550 -504 -552 0
504 -550 -552 0
552 -550 -504 0
552 550 504 0
-2 552 0
-503 553 0
-504 553 0
-505 553 0
-506 553 0
-507 553 0
-508 553 0
554 0
550 -553 -555 0
-550 553 -555 0
-550 -553 555 0
550 553 555 0
-3 555 0
503 556 0
504 556 0
505 556 0
506 556 0
507 556 0
508 556 0
-557 0
-550 556 -558 0
550 -556 -558 0
558 -556 -550 0
550 556 558 0
-4 -558 0
504 -559 -560 0
559 -504 -560 0
-504 -559 560 0
504 559 560 0
-1 -560 0
559 -505 -561 0
505 -559 -561 0
561 -559 -505 0
561 559 505 0
-2 561 0
559 -553 -562 0
553 -559 -562 0
-553 -559 562 0
559 553 562 0
-3 562 0
556 -559 -563 0
559 -556 -563 0
563 -556 -559 0
559 556 563 0
-4 -563 0
505 -564 -565 0
564 -505 -565 0
-505 -564 565 0
505 564 565 0
-1 -565 0
564 -506 -566 0
506 -564 -566 0
566 -564 -506 0
566 564 506 0
-2 566 0
564 -553 -567 0
553 -564 -567 0
-553 -564 567 0
564 553 567 0
-3 567 0
556 -564 -568 0
564 -556 -568 0
568 -556 -564 0
564 556 568 0
-4 -568 0
506 -569 -570 0
569 -506 -570 0
-506 -569 570 0
506 569 570 0
-1 -570 0
569 -507 -571 0
507 -569 -571 0
571 -569 -507 0
571 569 507 0
-2 571 0
569 -553 -572 0
553 -569 -572 0
-553 -569 572 0
569 553 572 0
-3 572 0
556 -569 -573 0
569 -556 -573 0
573 -556 -569 0
569 556 573 0
-4 -573 0
507 -574 -575 0
574 -507 -575 0
-507 -574 575 0
507 574 575 0
-1 -575 0
574 -508 -576 0
508 -574 -576 0
576 -574 -508 0
576 574 508 0
-2 576 0
574 -553 -577 0
553 -574 -577 0
-553 -574 577 0
574 553 577 0
-3 577 0
556 -574 -578 0
574 -556 -578 0
578 -556 -574 0
574 556 578 0
-4 -578 0
508 -579 -580 0
579 -508 -580 0
-508 -579 580 0
508 579 580 0
-1 -580 0
-503 579 -581 0
503 -579 -581 0
581 -579 -503 0
581 579 503 0
-2 581 0
-508 582 0
-550 582 0
508 550 -582 0
579 -582 -583 0
-579 582 -583 0
-579 -582 583 0
579 582 583 0
-3 583 0
508 584 0
550 584 0
-508 -550 -584 0
-579 584 -585 0
579 -584 -585 0
585 -584 -579 0
579 584 585 0
-4 -585 0
586 -587 -588 0
587 -586 -588 0
-586 -587 588 0
587 586 588 0
-1 -588 0
587 -589 -590 0
589 -587 -590 0
590 -587 -589 0
590 587 589 0
-2 590 0
-416 591 0
-417 591 0
-418 591 0
-419 591 0
-586 591 0
-589 591 0
-592 591 0
-593 591 0
594 0
587 -591 -595 0
-587 591 -595 0
-587 -591 595 0
587 591 595 0
-3 595 0
416 596 0
417 596 0
418 596 0
419 596 0
586 596 0
589 596 0
592 596 0
593 596 0
-597 0
-587 596 -598 0
587 -596 -598 0
598 -596 -587 0
587 596 598 0
-4 -598 0
589 -599 -600 0
599 -589 -600 0
-589 -599 600 0
589 599 600 0
-1 -600 0
599 -592 -601 0
592 -599 -601 0
601 -599 -592 0
601 599 592 0
-2 601 0
-416 602 0
-417 602 0
-418 602 0
-419 602 0
-589 602 0
-592 602 0
-593 602 0
603 0
599 -602 -604 0
-599 602 -604 0
-599 -602 604 0
599 602 604 0
-3 604 0
416 605 0
417 605 0
418 605 0
419 605 0
589 605 0
592 605 0
593 605 0
-606 0
-599 605 -607 0
599 -605 -607 0
607 -605 -599 0
599 605 607 0
-4 -607 0
592 -608 -609 0
608 -592 -609 0
-592 -608 609 0
592 608 609 0
-1 -609 0
608 -593 -610 0
593 -608 -610 0
610 -608 -593 0
610 608 593 0
-2 610 0
-416 611 0
-417 611 0
-418 611 0
-419 611 0
-592 611 0
-593 611 0
612 0
608 -611 -613 0
-608 611 -613 0
-608 -611 613 0
608 611 613 0
-3 613 0
416 614 0
417 614 0
418 614 0
419 614 0
592 614 0
593 614 0
-615 0
-608 614 -616 0
608 -614 -616 0
616 -614 -608 0
608 614 616 0
-4 -616 0
593 -617 -618 0
617 -593 -618 0
-593 -617 618 0
593 617 618 0
-1 -618 0
-418 617 -619 0
418 -617 -619 0
619 -617 -418 0
619 617 418 0
-2 619 0
-416 620 0
-417 620 0
-418 620 0
-419 620 0
-593 620 0
416 417 418 419 593 -620 0
617 -620 -621 0
-617 620 -621 0
-617 -620 621 0
617 620 621 0
-3 621 0
416 622 0
417 622 0
418 622 0
419 622 0
593 622 0
-623 0
-617 622 -624 0
617 -622 -624 0
624 -622 -617 0
617 622 624 0
-4 -624 0
6 0
97 0
162 0
254 0
294 0
334 0
-359 0
367 0
407 0
495 0
587 0
